CMPL model generation - running

CMPL version: 1.11.0
Authors: Thomas Schleiff, Mike Steglich
Distributed under the GPLv3 

create model instance ...
write model instance ...
CMPL model generation - finished

Solver - running


Welcome to IBM(R) ILOG(R) CPLEX(R) Interactive Optimizer 12.7.1.0
  with Simplex, Mixed Integer & Barrier Optimizers
5725-A06 5725-A29 5724-Y48 5724-Y49 5724-Y54 5724-Y55 5655-Y21
Copyright IBM Corp. 1988, 2017.  All Rights Reserved.

Type 'help' for a list of available commands.
Type 'help' followed by a command name for more
information on commands.

CPLEX> Specified objective sense: MINIMIZE
Selected objective  name:  line[1]
Selected RHS        name:  RHS
Selected bound      name:  BOUND
Problem '/tmp/cmpl.T23850.mps' read.
Read time = 0.06 sec. (10.12 ticks)
CPLEX> CPXPARAM_Read_APIEncoding                        "UTF-8"
Tried aggregator 3 times.
MIP Presolve eliminated 24047 rows and 37667 columns.
MIP Presolve modified 425 coefficients.
Aggregator did 740 substitutions.
Reduced MIP has 3135 rows, 4048 columns, and 11992 nonzeros.
Reduced MIP has 3838 binaries, 0 generals, 0 SOSs, and 0 indicators.
Presolve time = 0.06 sec. (50.09 ticks)
Found incumbent of value 708.898865 after 0.11 sec. (75.23 ticks)
Probing fixed 10 vars, tightened 0 bounds.
Probing time = 0.02 sec. (5.20 ticks)
Tried aggregator 1 time.
MIP Presolve eliminated 0 rows and 10 columns.
MIP Presolve modified 60 coefficients.
Reduced MIP has 3135 rows, 4038 columns, and 11972 nonzeros.
Reduced MIP has 4038 binaries, 0 generals, 0 SOSs, and 0 indicators.
Presolve time = 0.01 sec. (10.14 ticks)
Probing time = 0.01 sec. (2.82 ticks)
Clique table members: 7380.
MIP emphasis: balance optimality and feasibility.
MIP search method: dynamic search.
Parallel mode: none, using 1 thread.
Root relaxation solution time = 0.01 sec. (5.64 ticks)

        Nodes                                         Cuts/
   Node  Left     Objective  IInf  Best Integer    Best Bound    ItCnt     Gap

*     0+    0                          708.8989      -32.1257           104.53%
      0     0      128.7826     8      708.8989      128.7826      133   81.83%
*     0+    0                          134.8792      128.7826             4.52%
*     0+    0                          128.9654      128.7826             0.14%
      0     0      128.9074     2      128.9654      Cuts: 15      138    0.04%
*     0+    0                          128.9406      128.9074             0.03%
      0     0      128.9331     1      128.9406      Cuts: 11      141    0.01%

Clique cuts applied:  5
Cover cuts applied:  14
Gomory fractional cuts applied:  7

Root node processing (before b&c):
  Real time             =    0.20 sec. (132.67 ticks)
Sequential b&c:
  Real time             =    0.00 sec. (0.00 ticks)
                          ------------
Total (root+branch&cut) =    0.20 sec. (132.67 ticks)

Solution pool: 4 solutions saved.

MIP - Integer optimal, tolerance (0.0001/1e-06):  Objective =  1.2894061700e+02
Current MIP best bound =  1.2893308400e+02 (gap = 0.007533, 0.01%)
Solution time =    0.20 sec.  Iterations = 141  Nodes = 0 (1)
Deterministic time = 132.79 ticks  (665.67 ticks/sec)

CPLEX> Incumbent solution written to file '/tmp/cmpl.T23850.gsol'.
CPLEX> 
CMPL: Time used for model generation: 1 seconds
CMPL: Time used for solving the model: 1 seconds


Solution written to ASCII file: results/output_generated_conf_0.3/2016-12-05-5/fair-nonlinear.sol

Solver - finished
